c This is QMaxSAT 2017 based on 14.07
c This is Glucose 3.0
c This is MiniSat 2.2.0
c WARNING: for repeatability, setting FPU to use double precision
c card = mrwto, comp = 0, pmodel = 0, narr = 2, mct = 24, verb = 0
cr firstCPXsol 0 0 0
c top = 81479
c |  Number of variables:    1250                                             |
c |  Number of clauses:      27397                                            |
c |  Weight of hard clauses: 81479                                            |
c |  Number of soft clauses: 1196                                             |
c |  Number of unit soft clauses: 0                                           |
c |  Maximum Cardinality (by unit): 180344       (0           )               |
c last restart ## conflicts  :  0 57 
o 2081 | cpuTime 0.00981 s
c Sum of weights = 90172
c A number of soft clauses remained = 598
c MRWTO encoding for Pseudo-Boolean Constraints
c sizeMax=2081
c No.0 Divisor=13	generated by pow1
c No.1 Divisor=13	generated by pow1
c No.2 Divisor=13	generated by pow1
c p0= 13	p1= 13	p2= 13	
c number of digits = 4
c linkingVar[0].size = 13, linkingVar[1].size = 13, linkingVar[2].size = 13, linkingVar[3].size = 1, 
c Pseudo-Boolean Constraints: 13955 variables and 144980 clauses
c Sum of weights = 90172
c A number of soft clauses remained = 598
c MRWTO encoding for Pseudo-Boolean Constraints
c sizeMax=2081
c No.0 Divisor=13	generated by pow1
c No.1 Divisor=13	generated by pow1
c No.2 Divisor=13	generated by pow1
c p0= 13	p1= 13	p2= 13	
c number of digits = 4
c linkingVar[0].size = 13, linkingVar[1].size = 13, linkingVar[2].size = 13, linkingVar[3].size = 1, 
c Pseudo-Boolean Constraints: 13955 variables and 144980 clauses
c last restart ## conflicts  :  280 902 
o 2025 | cpuTime 0.214092 s
c last restart ## conflicts  :  268 936 
o 1950 | cpuTime 0.323036 s
c last restart ## conflicts  :  152 766 
o 1927 | cpuTime 0.414304 s
c last restart ## conflicts  :  389 839 
o 1889 | cpuTime 0.45694 s
c last restart ## conflicts  :  364 1398 
o 1797 | cpuTime 0.619538 s
s UNKNOWN
c Search is stopped by a limit (maybe time-limit)
cr positiVarArr: [ | 17(1->16) | 33(1->7) | 65(2->14) | 95(3->19) | 110(4->9) | 147(5->21) | 156(6->5) | 187(7->11) | 207(8->6) | 239(9->13) | 259(10->8) | 291(11->15) | 305(12->4) | 336(13->10) | 352(14->1) | 396(15->20) | 424(16->23) | 444(17->18) | 463(18->12) | 493(19->17) | 503(20->2) | 550(21->24) | 554(22->3) | 598(23->22) | 601(24->1) | ]
cr the 1-th chain: [ 1->16->23->22->3->19->17->18->12->4->9->13->10->8->6->5->21->24->1 ] (#non-depot=17) {#cumul.=18}
cr the 2-th chain: [ 1->7->11->15->20->2->14->1 ] (#non-depot=6) {#cumul.=24}
c Latest Answer = 0 by 6 loops
c restarts              : 62231
c conflicts             : 11393024       (3168 /sec)
c decisions             : 23898819       (0.00 % random) (6646 /sec)
c propagations          : 800059420      (222488 /sec)
c conflict literals     : 1559667455     (14.69 % deleted)
c Memory used           : 470.00 MB
c CPU time              : 3595.96 s
